sat
( (V0 5)
  (V1 7)
  (V2 6)
  (V3 3)
  (V4 1)
  (V5 4)
  (V6 2)
  (V7 4)
  (V8 2)
  (V9 3)
  (V10 7)
  (V11 5)
  (V12 1)
  (V13 6)
  (V14 2)
  (V15 4)
  (V16 5)
  (V17 1)
  (V18 6)
  (V19 7)
  (V20 3)
  (V21 1)
  (V22 5)
  (V23 7)
  (V24 6)
  (V25 3)
  (V26 2)
  (V27 4)
  (V28 3)
  (V29 6)
  (V30 2)
  (V31 4)
  (V32 7)
  (V33 5)
  (V34 1)
  (V35 7)
  (V36 3)
  (V37 1)
  (V38 2)
  (V39 4)
  (V40 6)
  (V41 5)
  (V42 6)
  (V43 1)
  (V44 4)
  (V45 5)
  (V46 2)
  (V47 3)
  (V48 7) )
